GLPSOL: GLPK LP/MIP Solver, v4.65
Parameter(s) specified in the command line:
 --model solver_drone.mod --data solver_drone_data_20.dat --output solver_drone_solution_20_2.log
 --log solver_drone_cmd_output_20_2.log --tmlim 20
Reading model section from solver_drone.mod...
41 lines were read
Reading data section from solver_drone_data_20.dat...
59 lines were read
Generating f...
Generating package_deliverd_once...
Generating package_well_delivered...
Generating time_spent_flying...
Generating autonomy_not_exceeded...
Generating check_time_max...
Model has been successfully generated
GLPK Integer Optimizer, v4.65
1193 rows, 1137 columns, 3463 non-zeros
1137 integer variables, 1134 of which are binary
Preprocessing...
58 rows, 1137 columns, 2328 non-zeros
1137 integer variables, 1134 of which are binary
Scaling...
 A: min|aij| =  1.000e+00  max|aij| =  1.428e+03  ratio =  1.428e+03
GM: min|aij| =  4.803e-01  max|aij| =  2.082e+00  ratio =  4.335e+00
EQ: min|aij| =  2.307e-01  max|aij| =  1.000e+00  ratio =  4.335e+00
2N: min|aij| =  2.500e-01  max|aij| =  1.742e+00  ratio =  6.969e+00
Constructing initial basis...
Size of triangular part is 58
Solving LP relaxation...
GLPK Simplex Optimizer, v4.65
58 rows, 1137 columns, 2328 non-zeros
      0: obj =   0.000000000e+00 inf =   5.761e+02 (1)
     38: obj =   9.218000000e+03 inf =   0.000e+00 (0)
*    62: obj =   9.218000000e+03 inf =   0.000e+00 (0)
OPTIMAL LP SOLUTION FOUND
Integer optimization begins...
Long-step dual simplex will be used
+    62: mip =     not found yet >=              -inf        (1; 0)
+    79: >>>>>   9.368000000e+03 >=   9.218000000e+03   1.6% (18; 0)
+    92: >>>>>   9.332000000e+03 >=   9.218000000e+03   1.2% (27; 1)
+   105: >>>>>   9.324000000e+03 >=   9.218000000e+03   1.1% (30; 3)
+   121: >>>>>   9.288000000e+03 >=   9.218000000e+03   0.8% (32; 9)
+   133: >>>>>   9.244000000e+03 >=   9.218000000e+03   0.3% (36; 18)
+   139: >>>>>   9.240000000e+03 >=   9.218000000e+03   0.2% (35; 23)
+   236: >>>>>   9.224000000e+03 >=   9.218000000e+03 < 0.1% (76; 45)
+   237: >>>>>   9.220000000e+03 >=   9.218000000e+03 < 0.1% (75; 46)
+  7737: mip =   9.220000000e+03 >=   9.218000000e+03 < 0.1% (1581; 6734)
+ 15853: mip =   9.220000000e+03 >=   9.218000000e+03 < 0.1% (3003; 14640)
+ 23484: mip =   9.220000000e+03 >=   9.218000000e+03 < 0.1% (3935; 22813)
+ 30240: mip =   9.220000000e+03 >=   9.218000000e+03 < 0.1% (4613; 30810)
TIME LIMIT EXCEEDED; SEARCH TERMINATED
Time used:   20.0 secs
Memory used: 7.3 Mb (7696046 bytes)
The package 1 is delivered by the drone 1 to the house 2
The package 2 is delivered by the drone 2 to the house 2
The package 3 is delivered by the drone 1 to the house 4
The package 4 is delivered by the drone 1 to the house 4
The package 5 is delivered by the drone 1 to the house 4
The package 6 is delivered by the drone 1 to the house 5
The package 7 is delivered by the drone 2 to the house 6
The package 8 is delivered by the drone 1 to the house 6
The package 9 is delivered by the drone 2 to the house 6
The package 10 is delivered by the drone 1 to the house 8
The package 11 is delivered by the drone 1 to the house 8
The package 12 is delivered by the drone 2 to the house 8
The package 13 is delivered by the drone 2 to the house 9
The package 14 is delivered by the drone 1 to the house 9
The package 15 is delivered by the drone 2 to the house 10
The package 16 is delivered by the drone 2 to the house 10
The package 17 is delivered by the drone 2 to the house 11
The package 18 is delivered by the drone 1 to the house 12
The package 19 is delivered by the drone 2 to the house 15
The package 20 is delivered by the drone 2 to the house 16
The package 21 is delivered by the drone 2 to the house 16
The package 22 is delivered by the drone 2 to the house 18
The package 23 is delivered by the drone 2 to the house 18
The package 24 is delivered by the drone 1 to the house 20
The package 25 is delivered by the drone 1 to the house 20
The package 26 is delivered by the drone 2 to the house 21
The package 27 is delivered by the drone 1 to the house 21
Model has been successfully processed
Writing MIP solution to 'solver_drone_solution_20_2.log'...
